
******************************************************************************
This program contains Ipopt, a library for large-scale nonlinear optimization.
 Ipopt is released as open source code under the Eclipse Public License (EPL).
         For more information visit http://projects.coin-or.org/Ipopt
******************************************************************************

This is Ipopt version 3.12.6, running with linear solver ma57.

Number of nonzeros in equality constraint Jacobian...:    14998
Number of nonzeros in inequality constraint Jacobian.:        0
Number of nonzeros in Lagrangian Hessian.............:     5000

Total number of variables............................:     5000
                     variables with only lower bounds:        0
                variables with lower and upper bounds:        0
                     variables with only upper bounds:        0
Total number of equality constraints.................:     5000
Total number of inequality constraints...............:        0
        inequality constraints with only lower bounds:        0
   inequality constraints with lower and upper bounds:        0
        inequality constraints with only upper bounds:        0

iter    objective    inf_pr   inf_du lg(mu)  ||d||  lg(rg) alpha_du alpha_pr  ls
   0  0.0000000e+00 9.35e-01 0.00e+00  -1.0 0.00e+00    -  0.00e+00 0.00e+00   0
   1  0.0000000e+00 1.08e+00 0.00e+00  -1.7 3.65e+01    -  1.00e+00 1.00e+00h  1
   2  0.0000000e+00 2.48e+00 0.00e+00  -1.7 3.17e+01    -  1.00e+00 1.00e+00h  1
   3  0.0000000e+00 2.27e+00 0.00e+00  -1.7 6.00e+00    -  1.00e+00 1.00e+00h  1
   4  0.0000000e+00 2.22e+00 0.00e+00  -1.7 1.53e+01    -  1.00e+00 1.00e+00h  1
   5  0.0000000e+00 2.13e+00 0.00e+00  -1.7 1.65e+01    -  1.00e+00 1.00e+00h  1
   6  0.0000000e+00 2.18e+00 0.00e+00  -1.7 1.06e+01    -  1.00e+00 1.00e+00h  1
   7  0.0000000e+00 1.68e+00 0.00e+00  -1.7 7.24e+00    -  1.00e+00 5.00e-01h  2
   8  0.0000000e+00 1.50e+00 0.00e+00  -1.7 1.55e+00    -  1.00e+00 5.00e-01h  2
   9  0.0000000e+00 1.45e+00 0.00e+00  -1.7 7.34e+00    -  1.00e+00 3.12e-02h  6
iter    objective    inf_pr   inf_du lg(mu)  ||d||  lg(rg) alpha_du alpha_pr  ls
  10  0.0000000e+00 1.58e+00 0.00e+00  -1.7 3.81e+01    -  1.00e+00 5.00e-01h  2
  11  0.0000000e+00 1.02e+00 0.00e+00  -1.7 9.30e+00    -  1.00e+00 1.25e-01h  4
  12  0.0000000e+00 9.11e-01 0.00e+00  -1.7 2.01e+00    -  1.00e+00 1.25e-01h  4
  13  0.0000000e+00 9.51e-01 0.00e+00  -1.7 1.81e+00    -  1.00e+00 2.50e-01h  3
  14  0.0000000e+00 9.49e-01 0.00e+00  -1.7 2.57e+01    -  1.00e+00 1.95e-03h 10
  15  0.0000000e+00 8.35e-01 0.00e+00  -1.7 3.96e+00    -  1.00e+00 1.25e-01h  4
  16  0.0000000e+00 8.22e-01 0.00e+00  -1.7 1.06e+01    -  1.00e+00 1.56e-02h  7
  17  0.0000000e+00 3.71e+00 0.00e+00  -1.7 4.66e+01    -  1.00e+00 1.00e+00w  1
  18  0.0000000e+00 7.20e+00 0.00e+00  -1.7 1.05e+02    -  1.00e+00 1.00e+00w  1
  19  0.0000000e+00 1.14e+01 0.00e+00  -1.7 6.54e+01    -  1.00e+00 1.00e+00w  1
iter    objective    inf_pr   inf_du lg(mu)  ||d||  lg(rg) alpha_du alpha_pr  ls
  20  0.0000000e+00 7.98e-01 0.00e+00  -1.7 2.34e+02    -  1.00e+00 1.25e-01h  3
  21  0.0000000e+00 7.60e-01 0.00e+00  -1.7 3.08e+00    -  1.00e+00 2.50e-01h  3
  22  0.0000000e+00 7.42e-01 0.00e+00  -1.7 3.56e+02    -  1.00e+00 3.12e-02h  6
  23  0.0000000e+00 7.44e-01 0.00e+00  -1.7 1.03e+01    -  1.00e+00 3.12e-02h  6
  24  0.0000000e+00 7.42e-01 0.00e+00  -1.7 7.96e+00    -  1.00e+00 3.91e-03h  9
  25  0.0000000e+00 7.37e-01 0.00e+00  -1.7 1.14e+01    -  1.00e+00 7.81e-03h  8
  26  0.0000000e+00 7.50e-01 0.00e+00  -1.7 1.99e+01    -  1.00e+00 1.56e-02h  7
  27  0.0000000e+00 7.44e-01 0.00e+00  -1.7 6.46e+00    -  1.00e+00 6.25e-02h  5
  28  0.0000000e+00 7.40e-01 0.00e+00  -1.7 8.73e+00    -  1.00e+00 3.12e-02h  6
  29  0.0000000e+00 7.58e-01 0.00e+00  -1.7 1.29e+01    -  1.00e+00 3.12e-02h  6
iter    objective    inf_pr   inf_du lg(mu)  ||d||  lg(rg) alpha_du alpha_pr  ls
  30  0.0000000e+00 1.77e+00 0.00e+00  -1.7 1.37e+01    -  1.00e+00 1.00e+00w  1
  31  0.0000000e+00 1.97e+00 0.00e+00  -1.7 1.89e+00    -  1.00e+00 1.00e+00w  1
  32  0.0000000e+00 1.94e+00 0.00e+00  -1.7 1.79e+01    -  1.00e+00 1.00e+00w  1
  33  0.0000000e+00 7.57e-01 0.00e+00  -1.7 5.52e+00    -  1.00e+00 4.88e-04h 11
  34  0.0000000e+00 7.40e-01 0.00e+00  -1.7 4.83e+00    -  1.00e+00 3.12e-02h  6
  35  0.0000000e+00 7.36e-01 0.00e+00  -1.7 1.15e+01    -  1.00e+00 7.81e-03h  8
  36  0.0000000e+00 7.35e-01 0.00e+00  -1.7 2.34e+01    -  1.00e+00 3.91e-03h  9
  37  0.0000000e+00 7.41e-01 0.00e+00  -1.7 4.87e+01    -  1.00e+00 3.91e-03h  9
  38  0.0000000e+00 7.74e-01 0.00e+00  -1.7 8.95e+00    -  1.00e+00 6.25e-02h  5
  39  0.0000000e+00 7.71e-01 0.00e+00  -1.7 3.81e+00    -  1.00e+00 3.91e-03h  9
iter    objective    inf_pr   inf_du lg(mu)  ||d||  lg(rg) alpha_du alpha_pr  ls
  40  0.0000000e+00 7.71e-01 0.00e+00  -1.7 2.75e+01    -  1.00e+00 6.10e-05h 15
  41  0.0000000e+00 7.66e-01 0.00e+00  -1.7 3.97e+00    -  1.00e+00 7.81e-03h  8
  42  0.0000000e+00 7.65e-01 0.00e+00  -1.7 4.35e+00    -  1.00e+00 9.77e-04h 11
  43  0.0000000e+00 2.07e+00 0.00e+00  -1.7 4.41e+00    -  1.00e+00 1.00e+00w  1
  44  0.0000000e+00 1.16e+00 0.00e+00  -1.7 3.38e+00    -  1.00e+00 1.00e+00w  1
  45  0.0000000e+00 1.58e+00 0.00e+00  -1.7 1.42e+00    -  1.00e+00 1.00e+00w  1
  46  0.0000000e+00 7.37e-01 0.00e+00  -1.7 7.95e+00    -  1.00e+00 6.25e-02h  4
  47  0.0000000e+00 7.48e-01 0.00e+00  -1.7 1.90e+01    -  1.00e+00 1.56e-02h  7
  48  0.0000000e+00 7.47e-01 0.00e+00  -1.7 8.67e+00    -  1.00e+00 9.77e-04h 11
  49  0.0000000e+00 7.45e-01 0.00e+00  -1.7 6.69e+00    -  1.00e+00 6.25e-02h  5
iter    objective    inf_pr   inf_du lg(mu)  ||d||  lg(rg) alpha_du alpha_pr  ls
  50  0.0000000e+00 7.44e-01 0.00e+00  -1.7 2.27e+01    -  1.00e+00 1.95e-03h 10
  51  0.0000000e+00 7.39e-01 0.00e+00  -1.7 7.60e+00    -  1.00e+00 7.81e-03h  8
  52  0.0000000e+00 7.46e-01 0.00e+00  -1.7 1.11e+01    -  1.00e+00 3.12e-02h  6
  53  0.0000000e+00 7.43e-01 0.00e+00  -1.7 6.77e+00    -  1.00e+00 3.91e-03h  9
  54  0.0000000e+00 7.38e-01 0.00e+00  -1.7 7.73e+00    -  1.00e+00 7.81e-03h  8
  55  0.0000000e+00 7.35e-01 0.00e+00  -1.7 1.16e+01    -  1.00e+00 7.81e-03h  8
  56  0.0000000e+00 1.93e+00 0.00e+00  -1.7 3.27e+01    -  1.00e+00 1.00e+00w  1
  57  0.0000000e+00 2.79e+00 0.00e+00  -1.7 1.60e+00    -  1.00e+00 1.00e+00w  1
  58  0.0000000e+00 2.36e+00 0.00e+00  -1.7 6.28e+00    -  1.00e+00 1.00e+00w  1
  59  0.0000000e+00 7.36e-01 0.00e+00  -1.7 6.79e+00    -  1.00e+00 3.91e-03h  8
iter    objective    inf_pr   inf_du lg(mu)  ||d||  lg(rg) alpha_du alpha_pr  ls
  60  0.0000000e+00 7.36e-01 0.00e+00  -1.7 1.47e+02    -  1.00e+00 3.05e-05h 16
  61  0.0000000e+00 7.35e-01 0.00e+00  -1.7 2.65e+01    -  1.00e+00 4.88e-04h 12
  62  0.0000000e+00 7.34e-01 0.00e+00  -1.7 2.09e+01    -  1.00e+00 3.91e-03h  9
  63  0.0000000e+00 7.34e-01 0.00e+00  -1.7 3.44e+02    -  1.00e+00 6.10e-05h 15
  64  0.0000000e+00 7.35e-01 0.00e+00  -1.7 8.37e+01    -  1.00e+00 9.77e-04h 11
  65  0.0000000e+00 7.34e-01 0.00e+00  -1.7 2.17e+01    -  1.00e+00 3.91e-03h  9
  66  0.0000000e+00 7.35e-01 0.00e+00  -1.7 7.07e+01    -  1.00e+00 9.77e-04h 11
  67  0.0000000e+00 7.34e-01 0.00e+00  -1.7 2.57e+01    -  1.00e+00 1.95e-03h 10
  68r 0.0000000e+00 7.34e-01 9.99e+02  -0.1 0.00e+00    -  0.00e+00 4.77e-07R 22
  69r 0.0000000e+00 1.83e+00 9.98e+02  -0.1 2.08e+02    -  4.35e-01 2.44e-03f  1
iter    objective    inf_pr   inf_du lg(mu)  ||d||  lg(rg) alpha_du alpha_pr  ls
  70r 0.0000000e+00 1.65e+00 9.79e+02  -0.1 3.82e+01    -  1.00e+00 1.78e-02f  1
  71r 0.0000000e+00 1.35e+00 8.45e+02  -0.1 7.04e+00    -  2.93e-01 1.36e-01f  1
  72r 0.0000000e+00 1.34e+00 8.60e+02  -0.1 4.99e-01   4.0 9.86e-03 4.25e-03h  1
  73r 0.0000000e+00 1.11e+00 1.42e+03  -0.1 8.64e+00    -  4.88e-03 1.61e-01f  1
  74r 0.0000000e+00 1.08e+00 4.18e+03  -0.1 5.46e-01   4.4 2.70e-01 2.93e-02h  1
  75r 0.0000000e+00 8.84e-01 6.88e+04  -0.1 7.13e-01    -  6.03e-02 8.46e-01h  1
  76r 0.0000000e+00 7.77e-01 5.93e+04  -0.1 7.11e-01   3.9 3.08e-01 1.24e-01h  1
  77r 0.0000000e+00 7.68e-01 5.86e+04  -0.1 6.52e-01   3.5 4.12e-03 1.26e-02h  1
  78r 0.0000000e+00 7.58e-01 5.78e+04  -0.1 3.17e-01   3.9 2.59e-02 1.27e-02h  1
  79r 0.0000000e+00 7.48e-01 5.70e+04  -0.1 5.90e-01   3.4 9.01e-03 1.37e-02h  2
iter    objective    inf_pr   inf_du lg(mu)  ||d||  lg(rg) alpha_du alpha_pr  ls
  80r 0.0000000e+00 7.43e-01 5.66e+04  -0.1 3.09e-01   3.8 3.27e-01 6.86e-03h  1
  81r 0.0000000e+00 7.28e-01 3.74e+04  -0.1 3.06e-01   4.3 5.59e-02 1.00e+00h  1
  82r 0.0000000e+00 7.22e-01 3.13e+04  -0.1 4.46e-01    -  1.58e-02 1.61e-01h  2
  83r 0.0000000e+00 7.19e-01 2.86e+04  -0.1 4.30e-01    -  5.22e-02 8.47e-02h  1
  84r 0.0000000e+00 6.83e-01 6.06e+03  -0.1 4.41e-01    -  1.66e-01 1.00e+00h  1
  85r 0.0000000e+00 6.75e-01 2.41e+03  -0.1 2.93e-01    -  3.45e-02 2.09e-01h  1
  86r 0.0000000e+00 6.70e-01 3.12e+03  -0.1 2.72e-01    -  5.98e-02 1.51e-01h  1
  87r 0.0000000e+00 6.47e-01 5.40e+03  -0.1 2.99e-01    -  8.64e-01 1.00e+00h  1
  88r 0.0000000e+00 6.10e-01 8.33e+03  -0.1 7.29e-01    -  1.00e+00 1.00e+00h  1
  89r 0.0000000e+00 6.09e-01 4.19e+03  -0.1 6.72e-02    -  5.37e-01 5.00e-01h  2
iter    objective    inf_pr   inf_du lg(mu)  ||d||  lg(rg) alpha_du alpha_pr  ls
  90r 0.0000000e+00 6.07e-01 2.95e+01  -0.1 1.30e-01    -  1.00e+00 1.00e+00h  1
  91r 0.0000000e+00 6.56e-01 1.17e+00  -0.8 9.81e-01    -  1.00e+00 1.00e+00f  1
  92r 0.0000000e+00 6.91e-01 2.00e-01  -2.3 6.94e-01    -  9.95e-01 1.00e+00f  1
  93r 0.0000000e+00 7.22e-01 1.75e-01  -3.4 6.22e-01    -  1.00e+00 1.00e+00f  1
  94r 0.0000000e+00 7.42e-01 8.53e-02  -3.4 3.95e-01    -  1.00e+00 1.00e+00f  1
  95r 0.0000000e+00 7.42e-01 1.63e-04  -3.4 2.55e-03    -  1.00e+00 1.00e+00h  1
  96r 0.0000000e+00 7.42e-01 1.00e-02  -7.8 9.02e-03    -  9.99e-01 1.00e+00f  1

Number of Iterations....: 96

                                   (scaled)                 (unscaled)
Objective...............:   0.0000000000000000e+00    0.0000000000000000e+00
Dual infeasibility......:   7.0694963385908860e-05    7.0694963385908860e-05
Constraint violation....:   7.4222135743755790e-01    7.4222135743755790e-01
Complementarity.........:   0.0000000000000000e+00    0.0000000000000000e+00
Overall NLP error.......:   7.4222135743755790e-01    7.4222135743755790e-01


Number of objective function evaluations             = 502
Number of objective gradient evaluations             = 70
Number of equality constraint evaluations            = 502
Number of inequality constraint evaluations          = 0
Number of equality constraint Jacobian evaluations   = 99
Number of inequality constraint Jacobian evaluations = 0
Number of Lagrangian Hessian evaluations             = 97
Total CPU secs in IPOPT (w/o function evaluations)   =      0.400
Total CPU secs in NLP function evaluations           =      0.643

EXIT: Converged to a point of local infeasibility. Problem may be infeasible.

************************ CUTEst statistics ************************


 Package used            :  IPOPT
 Problem                 :  ARTIF     
 # variables             =            5002
 # constraints           =            5000
 # objective functions   =        0.5730000E+03
 # objective gradients   =        0.7100000E+02
 # objective Hessians    =        0.9700000E+02
 # Hessian-vector prdct  =        0.0000000E+00
 # constraints functions =        0.6030000E+03
 # constraints gradients =        0.1010000E+03
 # constraints Hessians  =        0.9700000E+02
 Exit code               =               2
 Final f                 =   0.0000000E+00
 Set up time             =            0.11 seconds
 Solve time              =            1.19 seconds


******************************************************************

System Time =       1.0230000019 s.
